============================[ Problem Statistics ]=============================|                                                                             ||  Number of variables:          4242                                         ||  Number of clauses:            9647                                         ||  Parse time:                   0.05 s                                       ||                                                                             |============================[ Search Statistics ]==============================| Conflicts |          ORIGINAL         |          LEARNT          | Progress ||           |    Vars  Clauses Literals |    Limit  Clauses Lit/Cl |          |==============================================================================================================================================================restarts              : 1conflicts             : 34             (493 /sec)decisions             : 119            (0.00 % random) (1725 /sec)propagations          : 8082           (117130 /sec)conflict literals     : 1176           (95.66 % deleted)CPU time              : 0.069 sSATISFIABLE